
Gurobi 10.0.1 (linux64) logging started Tue Sep 12 17:50:12 2023

Set parameter LogFile to value "./log/esc16d/esc16d.log"
Set parameter TimeLimit to value 180
Gurobi Optimizer version 10.0.1 build v10.0.1rc0 (linux64)

CPU model: 12th Gen Intel(R) Core(TM) i5-12600KF, instruction set [SSE2|AVX|AVX2]
Thread count: 8 physical cores, 16 logical processors, using up to 16 threads

Optimize a model with 32 rows, 256 columns and 512 nonzeros
Model fingerprint: 0x492ab994
Model has 3696 quadratic objective terms
Variable types: 0 continuous, 256 integer (256 binary)
Coefficient statistics:
  Matrix range     [1e+00, 1e+00]
  Objective range  [0e+00, 0e+00]
  QObjective range [4e+00, 2e+01]
  Bounds range     [1e+00, 1e+00]
  RHS range        [1e+00, 1e+00]
Found heuristic solution: objective 58.0000000
Presolve time: 0.03s
Presolved: 3728 rows, 3952 columns, 11600 nonzeros
Variable types: 0 continuous, 3952 integer (3952 binary)

Root relaxation: objective 0.000000e+00, 157 iterations, 0.00 seconds (0.01 work units)

    Nodes    |    Current Node    |     Objective Bounds      |     Work
 Expl Unexpl |  Obj  Depth IntInf | Incumbent    BestBd   Gap | It/Node Time

     0     0    0.00000    0   32   58.00000    0.00000   100%     -    0s
H    0     0                      56.0000000    0.00000   100%     -    0s
H    0     0                      52.0000000    0.00000   100%     -    0s
H    0     0                      36.0000000    0.00000   100%     -    0s
     0     0    0.00000    0   30   36.00000    0.00000   100%     -    0s
H    0     0                      26.0000000    0.00000   100%     -    0s
     0     0    1.00000    0   40   26.00000    1.00000  96.2%     -    0s
H    0     0                      22.0000000    1.00000  95.5%     -    0s
     0     0    1.00000    0   31   22.00000    1.00000  95.5%     -    0s
     0     0    1.00000    0   31   22.00000    1.00000  95.5%     -    0s
H    0     0                      20.0000000    1.00000  95.0%     -    0s
H    0     0                      18.0000000    1.00000  94.4%     -    0s
     0     0    1.33333    0   44   18.00000    1.33333  92.6%     -    0s
H    0     0                      16.0000000    1.33333  91.7%     -    0s
     0     0    1.33333    0   40   16.00000    1.33333  91.7%     -    0s
     0     0    1.33333    0   43   16.00000    1.33333  91.7%     -    0s
     0     0    1.33333    0   39   16.00000    1.33333  91.7%     -    0s
     0     0    1.33333    0   42   16.00000    1.33333  91.7%     -    0s
     0     0    1.33333    0   40   16.00000    1.33333  91.7%     -    0s
     0     0    2.00000    0   30   16.00000    2.00000  87.5%     -    0s
     0     0    2.00000    0   40   16.00000    2.00000  87.5%     -    0s
     0     0    2.00000    0   42   16.00000    2.00000  87.5%     -    0s
     0     0    2.00000    0   35   16.00000    2.00000  87.5%     -    0s
     0     0    2.00000    0   37   16.00000    2.00000  87.5%     -    0s
     0     0    2.00000    0   37   16.00000    2.00000  87.5%     -    0s
     0     0    2.00000    0   37   16.00000    2.00000  87.5%     -    0s
     0     0    2.00000    0   26   16.00000    2.00000  87.5%     -    0s
     0     0    2.00000    0   28   16.00000    2.00000  87.5%     -    0s
     0     0    2.00000    0   34   16.00000    2.00000  87.5%     -    0s
     0     0    2.00000    0   34   16.00000    2.00000  87.5%     -    0s
     0     0    2.00000    0   28   16.00000    2.00000  87.5%     -    0s
     0     0    2.00000    0   27   16.00000    2.00000  87.5%     -    0s
     0     0    2.00000    0   26   16.00000    2.00000  87.5%     -    0s
     0     0    2.00000    0   24   16.00000    2.00000  87.5%     -    0s
     0     0    2.00000    0   28   16.00000    2.00000  87.5%     -    0s
     0     0    2.00000    0   28   16.00000    2.00000  87.5%     -    0s
     0     2    2.00000    0   26   16.00000    2.00000  87.5%     -    0s
  2302   754   14.00000   13   25   16.00000    6.00000  62.5%  32.2    5s

Cutting planes:
  Gomory: 1
  MIR: 3
  Zero half: 9
  RLT: 191
  BQP: 13

Explored 6073 nodes (193469 simplex iterations) in 9.92 seconds (10.68 work units)
Thread count was 16 (of 16 available processors)

Solution count 9: 16 18 20 ... 58

Optimal solution found (tolerance 1.00e-04)
Best objective 1.600000000000e+01, best bound 1.600000000000e+01, gap 0.0000%
